
Gurobi 11.0.2 (linux64) logging started Tue 03 Dec 2024 09:04:38 AM CET

Set parameter LogFile to value "./res/knapPI_11_50_1000/knapPI_11_50_1000_31/grb.log"
Set parameter Presolve to value 0
Set parameter Aggregate to value 0
Set parameter Heuristics to value 0
Set parameter LPWarmStart to value 0
Set parameter NLPHeur to value 0
Set parameter PreDepRow to value 0
Set parameter PreDual to value 0
Set parameter RINS to value 0
Set parameter Symmetry to value 0
Set parameter NodeLimit to value 1
Set parameter Threads to value 1

Gurobi 11.0.2 (linux64) logging started Tue 03 Dec 2024 09:04:38 AM CET

Set parameter LogFile to value "./res/knapPI_11_50_1000/knapPI_11_50_1000_31/grb.log"
Set parameter NLPHeur to value 0
Set parameter LPWarmStart to value 0
Set parameter PreDepRow to value 0
Set parameter Symmetry to value 0
Set parameter Presolve to value 0
Gurobi Optimizer version 11.0.2 build v11.0.2rc0 (linux64 - "Pop!_OS 20.04 LTS")

CPU model: Intel(R) Core(TM) i7-8650U CPU @ 1.90GHz, instruction set [SSE2|AVX|AVX2]
Thread count: 4 physical cores, 4 logical processors, using up to 1 threads

Optimize a model with 1 rows, 50 columns and 50 nonzeros
Model fingerprint: 0xa9c038df
Variable types: 0 continuous, 50 integer (50 binary)
Coefficient statistics:
  Matrix range     [4e+01, 4e+02]
  Objective range  [1e+02, 1e+03]
  Bounds range     [0e+00, 0e+00]
  RHS range        [3e+03, 3e+03]
Variable types: 0 continuous, 50 integer (50 binary)

Root relaxation: objective 1.262938e+04, 1 iterations, 0.00 seconds (0.00 work units)

    Nodes    |    Current Node    |     Objective Bounds      |     Work
 Expl Unexpl |  Obj  Depth IntInf | Incumbent    BestBd   Gap | It/Node Time

     0     0 12629.3846    0    1          - 12629.3846      -     -    0s
     0     0 12629.3846    0    1          - 12629.3846      -     -    0s
     0     0 12629.3846    0    1          - 12629.3846      -     -    0s
     0     0 12617.7059    0    3          - 12617.7059      -     -    0s
*    0     0               0    12575.000000 12575.0000  0.00%     -    0s

Cutting planes:
  MIR: 2
  StrongCG: 1
  RLT: 1

Explored 1 nodes (8 simplex iterations) in 0.00 seconds (0.00 work units)
Thread count was 1 (of 4 available processors)

Solution count 1: 12575 

Optimal solution found (tolerance 1.00e-04)
Best objective 1.257500000000e+04, best bound 1.257500000000e+04, gap 0.0000%

User-callback calls 59, time in user-callback 0.00 sec
opt = true
obj = 12575.0
solved_time = 0.0052
